p cnf 394 1590
c p weight -9 1 0
c p weight 9 -1 0
c p weight 13 6.12323399573676603586882014729198302312846062338790031898128063403419218957424163818359375E-17 0
c p weight -13 1 0
c p weight 14 1 0
c p weight -14 1 0
c p weight -11 1 0
c p weight 11 -1 0
c p weight -15 1 0
c p weight 15 -1 0
c p weight 19 -0.416146836547142406903532219075714237987995147705078125 0
c p weight -19 1 0
c p weight 20 0.9092974268256817094169264237280003726482391357421875 0
c p weight -20 1 0
c p weight -17 1 0
c p weight 17 -1 0
c p weight -21 1 0
c p weight 21 -1 0
c p weight 25 6.12323399573676603586882014729198302312846062338790031898128063403419218957424163818359375E-17 0
c p weight -25 1 0
c p weight 26 1 0
c p weight -26 1 0
c p weight -23 1 0
c p weight 23 -1 0
c p weight -27 1 0
c p weight 27 -1 0
c p weight 31 -0.416146836547142406903532219075714237987995147705078125 0
c p weight -31 1 0
c p weight 32 0.9092974268256817094169264237280003726482391357421875 0
c p weight -32 1 0
c p weight -29 1 0
c p weight 29 -1 0
c p weight -33 1 0
c p weight 33 -1 0
c p weight 38 -0.9684306916316953728340877205482684075832366943359375 0
c p weight -38 1 0
c p weight 39 0.249282962726609602643890184481278993189334869384765625 0
c p weight -39 1 0
c p weight -36 1 0
c p weight 36 -1 0
c p weight -40 1 0
c p weight 40 -1 0
c p weight -43 1 0
c p weight 43 -1 0
c p weight 47 6.12323399573676603586882014729198302312846062338790031898128063403419218957424163818359375E-17 0
c p weight -47 1 0
c p weight 48 1 0
c p weight -48 1 0
c p weight -45 1 0
c p weight 45 -1 0
c p weight -49 1 0
c p weight 49 -1 0
c p weight 53 -0.416146836547142406903532219075714237987995147705078125 0
c p weight -53 1 0
c p weight 54 0.9092974268256817094169264237280003726482391357421875 0
c p weight -54 1 0
c p weight -51 1 0
c p weight 51 -1 0
c p weight -55 1 0
c p weight 55 -1 0
c p weight 60 -0.9684306916316953728340877205482684075832366943359375 0
c p weight -60 1 0
c p weight 61 0.249282962726609602643890184481278993189334869384765625 0
c p weight -61 1 0
c p weight -58 1 0
c p weight 58 -1 0
c p weight -62 1 0
c p weight 62 -1 0
c p weight -65 1 0
c p weight 65 -1 0
c p weight 70 -0.9684306916316953728340877205482684075832366943359375 0
c p weight -70 1 0
c p weight 71 0.249282962726609602643890184481278993189334869384765625 0
c p weight -71 1 0
c p weight -68 1 0
c p weight 68 -1 0
c p weight -72 1 0
c p weight 72 -1 0
c p weight -75 1 0
c p weight 75 -1 0
c p weight 79 6.12323399573676603586882014729198302312846062338790031898128063403419218957424163818359375E-17 0
c p weight -79 1 0
c p weight 80 1 0
c p weight -80 1 0
c p weight -77 1 0
c p weight 77 -1 0
c p weight -81 1 0
c p weight 81 -1 0
c p weight 85 -0.416146836547142406903532219075714237987995147705078125 0
c p weight -85 1 0
c p weight 86 0.9092974268256817094169264237280003726482391357421875 0
c p weight -86 1 0
c p weight -83 1 0
c p weight 83 -1 0
c p weight -87 1 0
c p weight 87 -1 0
c p weight 92 -0.9684306916316953728340877205482684075832366943359375 0
c p weight -92 1 0
c p weight 93 0.249282962726609602643890184481278993189334869384765625 0
c p weight -93 1 0
c p weight -90 1 0
c p weight 90 -1 0
c p weight -94 1 0
c p weight 94 -1 0
c p weight -97 1 0
c p weight 97 -1 0
c p weight 101 6.12323399573676603586882014729198302312846062338790031898128063403419218957424163818359375E-17 0
c p weight -101 1 0
c p weight 102 1 0
c p weight -102 1 0
c p weight -99 1 0
c p weight 99 -1 0
c p weight -103 1 0
c p weight 103 -1 0
c p weight 107 -0.416146836547142406903532219075714237987995147705078125 0
c p weight -107 1 0
c p weight 108 0.9092974268256817094169264237280003726482391357421875 0
c p weight -108 1 0
c p weight -105 1 0
c p weight 105 -1 0
c p weight -109 1 0
c p weight 109 -1 0
c p weight 114 -0.9684306916316953728340877205482684075832366943359375 0
c p weight -114 1 0
c p weight 115 0.249282962726609602643890184481278993189334869384765625 0
c p weight -115 1 0
c p weight -112 1 0
c p weight 112 -1 0
c p weight -116 1 0
c p weight 116 -1 0
c p weight -119 1 0
c p weight 119 -1 0
c p weight 123 6.12323399573676603586882014729198302312846062338790031898128063403419218957424163818359375E-17 0
c p weight -123 1 0
c p weight 124 1 0
c p weight -124 1 0
c p weight -121 1 0
c p weight 121 -1 0
c p weight -125 1 0
c p weight 125 -1 0
c p weight 129 -0.416146836547142406903532219075714237987995147705078125 0
c p weight -129 1 0
c p weight 130 0.9092974268256817094169264237280003726482391357421875 0
c p weight -130 1 0
c p weight -127 1 0
c p weight 127 -1 0
c p weight -131 1 0
c p weight 131 -1 0
c p weight 136 -0.9684306916316953728340877205482684075832366943359375 0
c p weight -136 1 0
c p weight 137 0.249282962726609602643890184481278993189334869384765625 0
c p weight -137 1 0
c p weight -134 1 0
c p weight 134 -1 0
c p weight -138 1 0
c p weight 138 -1 0
c p weight -141 1 0
c p weight 141 -1 0
c p weight 146 -0.9684306916316953728340877205482684075832366943359375 0
c p weight -146 1 0
c p weight 147 0.249282962726609602643890184481278993189334869384765625 0
c p weight -147 1 0
c p weight -144 1 0
c p weight 144 -1 0
c p weight -148 1 0
c p weight 148 -1 0
c p weight -151 1 0
c p weight 151 -1 0
c p weight 155 6.12323399573676603586882014729198302312846062338790031898128063403419218957424163818359375E-17 0
c p weight -155 1 0
c p weight 156 1 0
c p weight -156 1 0
c p weight -153 1 0
c p weight 153 -1 0
c p weight -157 1 0
c p weight 157 -1 0
c p weight 161 -0.416146836547142406903532219075714237987995147705078125 0
c p weight -161 1 0
c p weight 162 0.9092974268256817094169264237280003726482391357421875 0
c p weight -162 1 0
c p weight -159 1 0
c p weight 159 -1 0
c p weight -163 1 0
c p weight 163 -1 0
c p weight 168 -0.9684306916316953728340877205482684075832366943359375 0
c p weight -168 1 0
c p weight 169 0.249282962726609602643890184481278993189334869384765625 0
c p weight -169 1 0
c p weight -166 1 0
c p weight 166 -1 0
c p weight -170 1 0
c p weight 170 -1 0
c p weight -173 1 0
c p weight 173 -1 0
c p weight 178 -0.9684306916316953728340877205482684075832366943359375 0
c p weight -178 1 0
c p weight 179 0.249282962726609602643890184481278993189334869384765625 0
c p weight -179 1 0
c p weight -176 1 0
c p weight 176 -1 0
c p weight -180 1 0
c p weight 180 -1 0
c p weight -183 1 0
c p weight 183 -1 0
c p weight 187 6.12323399573676603586882014729198302312846062338790031898128063403419218957424163818359375E-17 0
c p weight -187 1 0
c p weight 188 1 0
c p weight -188 1 0
c p weight -185 1 0
c p weight 185 -1 0
c p weight -189 1 0
c p weight 189 -1 0
c p weight 193 -0.416146836547142406903532219075714237987995147705078125 0
c p weight -193 1 0
c p weight 194 0.9092974268256817094169264237280003726482391357421875 0
c p weight -194 1 0
c p weight -191 1 0
c p weight 191 -1 0
c p weight -195 1 0
c p weight 195 -1 0
c p weight 200 -0.9684306916316953728340877205482684075832366943359375 0
c p weight -200 1 0
c p weight 201 0.249282962726609602643890184481278993189334869384765625 0
c p weight -201 1 0
c p weight -198 1 0
c p weight 198 -1 0
c p weight -202 1 0
c p weight 202 -1 0
c p weight 207 1 0
c p weight -207 1 0
c p weight 208 0 0
c p weight -208 1 0
c p weight -205 1 0
c p weight 205 -1 0
c p weight 211 6.12323399573676603586882014729198302312846062338790031898128063403419218957424163818359375E-17 0
c p weight -211 1 0
c p weight 212 1 0
c p weight -212 1 0
c p weight -209 1 0
c p weight 209 -1 0
c p weight 215 -0.99639982976127627889439963837503455579280853271484375 0
c p weight -215 1 0
c p weight 216 -0.084778412651451195980456532197422347962856292724609375 0
c p weight -216 1 0
c p weight -213 1 0
c p weight 213 -1 0
c p weight 219 6.12323399573676603586882014729198302312846062338790031898128063403419218957424163818359375E-17 0
c p weight -219 1 0
c p weight 220 1 0
c p weight -220 1 0
c p weight -217 1 0
c p weight 217 -1 0
c p weight 223 -1 0
c p weight -223 1 0
c p weight 224 3.673940397442059375002259206809000622711899723162043418511757408850826323032379150390625E-16 0
c p weight -224 1 0
c p weight -221 1 0
c p weight 221 -1 0
c p weight -225 1 0
c p weight 225 -1 0
c p weight 230 -0.9684306916316953728340877205482684075832366943359375 0
c p weight -230 1 0
c p weight 231 0.249282962726609602643890184481278993189334869384765625 0
c p weight -231 1 0
c p weight -228 1 0
c p weight 228 -1 0
c p weight -232 1 0
c p weight 232 -1 0
c p weight 237 1 0
c p weight -237 1 0
c p weight 238 0 0
c p weight -238 1 0
c p weight -235 1 0
c p weight 235 -1 0
c p weight 241 6.12323399573676603586882014729198302312846062338790031898128063403419218957424163818359375E-17 0
c p weight -241 1 0
c p weight 242 1 0
c p weight -242 1 0
c p weight -239 1 0
c p weight 239 -1 0
c p weight 245 -0.68394472153486163268354403044213540852069854736328125 0
c p weight -245 1 0
c p weight 246 -0.72953383601077781417387768669868819415569305419921875 0
c p weight -246 1 0
c p weight -243 1 0
c p weight 243 -1 0
c p weight 249 6.12323399573676603586882014729198302312846062338790031898128063403419218957424163818359375E-17 0
c p weight -249 1 0
c p weight 250 1 0
c p weight -250 1 0
c p weight -247 1 0
c p weight 247 -1 0
c p weight 253 -1 0
c p weight -253 1 0
c p weight 254 3.673940397442059375002259206809000622711899723162043418511757408850826323032379150390625E-16 0
c p weight -254 1 0
c p weight -251 1 0
c p weight 251 -1 0
c p weight -255 1 0
c p weight 255 -1 0
c p weight 260 -0.9684306916316953728340877205482684075832366943359375 0
c p weight -260 1 0
c p weight 261 0.249282962726609602643890184481278993189334869384765625 0
c p weight -261 1 0
c p weight -258 1 0
c p weight 258 -1 0
c p weight -262 1 0
c p weight 262 -1 0
c p weight 267 1 0
c p weight -267 1 0
c p weight 268 0 0
c p weight -268 1 0
c p weight -265 1 0
c p weight 265 -1 0
c p weight 271 6.12323399573676603586882014729198302312846062338790031898128063403419218957424163818359375E-17 0
c p weight -271 1 0
c p weight 272 1 0
c p weight -272 1 0
c p weight -269 1 0
c p weight 269 -1 0
c p weight 275 -0.76650089542787969154602478738524951040744781494140625 0
c p weight -275 1 0
c p weight 276 -0.64224323842938091377874343379517085850238800048828125 0
c p weight -276 1 0
c p weight -273 1 0
c p weight 273 -1 0
c p weight 279 6.12323399573676603586882014729198302312846062338790031898128063403419218957424163818359375E-17 0
c p weight -279 1 0
c p weight 280 1 0
c p weight -280 1 0
c p weight -277 1 0
c p weight 277 -1 0
c p weight 283 -1 0
c p weight -283 1 0
c p weight 284 3.673940397442059375002259206809000622711899723162043418511757408850826323032379150390625E-16 0
c p weight -284 1 0
c p weight -281 1 0
c p weight 281 -1 0
c p weight 287 1 0
c p weight -287 1 0
c p weight 288 0 0
c p weight -288 1 0
c p weight -285 1 0
c p weight 285 -1 0
c p weight 291 6.12323399573676603586882014729198302312846062338790031898128063403419218957424163818359375E-17 0
c p weight -291 1 0
c p weight 292 1 0
c p weight -292 1 0
c p weight -289 1 0
c p weight 289 -1 0
c p weight 295 -0.95536987871586676046575803411542437970638275146484375 0
c p weight -295 1 0
c p weight 296 -0.2954122455864516272328046397888101637363433837890625 0
c p weight -296 1 0
c p weight -293 1 0
c p weight 293 -1 0
c p weight 299 6.12323399573676603586882014729198302312846062338790031898128063403419218957424163818359375E-17 0
c p weight -299 1 0
c p weight 300 1 0
c p weight -300 1 0
c p weight -297 1 0
c p weight 297 -1 0
c p weight 303 -1 0
c p weight -303 1 0
c p weight 304 3.673940397442059375002259206809000622711899723162043418511757408850826323032379150390625E-16 0
c p weight -304 1 0
c p weight -301 1 0
c p weight 301 -1 0
c p weight -305 1 0
c p weight 305 -1 0
c p weight -308 1 0
c p weight 308 -1 0
c p weight -311 1 0
c p weight 311 -1 0
c p weight 316 1 0
c p weight -316 1 0
c p weight 317 0 0
c p weight -317 1 0
c p weight -314 1 0
c p weight 314 -1 0
c p weight 320 6.12323399573676603586882014729198302312846062338790031898128063403419218957424163818359375E-17 0
c p weight -320 1 0
c p weight 321 1 0
c p weight -321 1 0
c p weight -318 1 0
c p weight 318 -1 0
c p weight 324 -0.9965717412004699848893096714164130389690399169921875 0
c p weight -324 1 0
c p weight 325 -0.082733092778304484493645531983929686248302459716796875 0
c p weight -325 1 0
c p weight -322 1 0
c p weight 322 -1 0
c p weight 328 6.12323399573676603586882014729198302312846062338790031898128063403419218957424163818359375E-17 0
c p weight -328 1 0
c p weight 329 1 0
c p weight -329 1 0
c p weight -326 1 0
c p weight 326 -1 0
c p weight 332 -1 0
c p weight -332 1 0
c p weight 333 3.673940397442059375002259206809000622711899723162043418511757408850826323032379150390625E-16 0
c p weight -333 1 0
c p weight -330 1 0
c p weight 330 -1 0
c p weight 336 1 0
c p weight -336 1 0
c p weight 337 0 0
c p weight -337 1 0
c p weight -334 1 0
c p weight 334 -1 0
c p weight 340 6.12323399573676603586882014729198302312846062338790031898128063403419218957424163818359375E-17 0
c p weight -340 1 0
c p weight 341 1 0
c p weight -341 1 0
c p weight -338 1 0
c p weight 338 -1 0
c p weight 344 -0.95025841191023230347667549722245894372463226318359375 0
c p weight -344 1 0
c p weight 345 -0.31146259902890938153774413876817561686038970947265625 0
c p weight -345 1 0
c p weight -342 1 0
c p weight 342 -1 0
c p weight 348 6.12323399573676603586882014729198302312846062338790031898128063403419218957424163818359375E-17 0
c p weight -348 1 0
c p weight 349 1 0
c p weight -349 1 0
c p weight -346 1 0
c p weight 346 -1 0
c p weight 352 -1 0
c p weight -352 1 0
c p weight 353 3.673940397442059375002259206809000622711899723162043418511757408850826323032379150390625E-16 0
c p weight -353 1 0
c p weight -350 1 0
c p weight 350 -1 0
c p weight 356 1 0
c p weight -356 1 0
c p weight 357 0 0
c p weight -357 1 0
c p weight -354 1 0
c p weight 354 -1 0
c p weight 360 6.12323399573676603586882014729198302312846062338790031898128063403419218957424163818359375E-17 0
c p weight -360 1 0
c p weight 361 1 0
c p weight -361 1 0
c p weight -358 1 0
c p weight 358 -1 0
c p weight 364 -0.84291879781328404863671721614082343876361846923828125 0
c p weight -364 1 0
c p weight 365 -0.53804079798190773686883403570391237735748291015625 0
c p weight -365 1 0
c p weight -362 1 0
c p weight 362 -1 0
c p weight 368 6.12323399573676603586882014729198302312846062338790031898128063403419218957424163818359375E-17 0
c p weight -368 1 0
c p weight 369 1 0
c p weight -369 1 0
c p weight -366 1 0
c p weight 366 -1 0
c p weight 372 -1 0
c p weight -372 1 0
c p weight 373 3.673940397442059375002259206809000622711899723162043418511757408850826323032379150390625E-16 0
c p weight -373 1 0
c p weight -370 1 0
c p weight 370 -1 0
c p weight 376 1 0
c p weight -376 1 0
c p weight 377 0 0
c p weight -377 1 0
c p weight -374 1 0
c p weight 374 -1 0
c p weight 380 6.12323399573676603586882014729198302312846062338790031898128063403419218957424163818359375E-17 0
c p weight -380 1 0
c p weight 381 1 0
c p weight -381 1 0
c p weight -378 1 0
c p weight 378 -1 0
c p weight 384 -0.68896035160464041968708670538035221397876739501953125 0
c p weight -384 1 0
c p weight 385 -0.7247990300192255208600045079947449266910552978515625 0
c p weight -385 1 0
c p weight -382 1 0
c p weight 382 -1 0
c p weight 388 6.12323399573676603586882014729198302312846062338790031898128063403419218957424163818359375E-17 0
c p weight -388 1 0
c p weight 389 1 0
c p weight -389 1 0
c p weight -386 1 0
c p weight 386 -1 0
c p weight 392 -1 0
c p weight -392 1 0
c p weight 393 3.673940397442059375002259206809000622711899723162043418511757408850826323032379150390625E-16 0
c p weight -393 1 0
c p weight -390 1 0
c p weight 390 -1 0
c p weight 394 0.5 0
c p weight -394 1 0
394 0
-7 0
-5 0
-3 0
-1 0
-9 1 0
-9 2 0
9 -1 -2 0
10 1 -2 0
10 -1 2 0
-10 1 2 0
-10 -1 -2 0
-11 12 0
-11 10 0
-11 -1 0
11 -12 1 -10 0
12 -1 10 0
-12 1 10 0
-13 10 0
12 -13 -1 0
-12 -13 1 0
12 13 1 -10 0
-12 13 -1 -10 0
-14 10 0
12 -14 1 0
-12 -14 -1 0
12 14 -1 -10 0
-12 14 1 -10 0
-15 12 0
-15 10 0
15 -12 -10 0
16 12 -10 0
16 -12 10 0
-16 12 10 0
-16 -12 -10 0
-17 12 0
-17 16 0
-17 -18 0
17 18 -12 -16 0
18 12 -16 0
-18 12 16 0
-19 12 0
18 -19 -16 0
-18 -19 16 0
18 19 -12 16 0
-18 19 -12 -16 0
-20 12 0
18 -20 16 0
-18 -20 -16 0
18 20 -12 -16 0
-18 20 -12 16 0
-21 3 0
-21 4 0
21 -3 -4 0
22 3 -4 0
22 -3 4 0
-22 3 4 0
-22 -3 -4 0
-23 24 0
-23 22 0
-23 -3 0
23 -24 3 -22 0
24 -3 22 0
-24 3 22 0
-25 22 0
24 -25 -3 0
-24 -25 3 0
24 25 3 -22 0
-24 25 -3 -22 0
-26 22 0
24 -26 3 0
-24 -26 -3 0
24 26 -3 -22 0
-24 26 3 -22 0
-27 24 0
-27 22 0
27 -24 -22 0
28 24 -22 0
28 -24 22 0
-28 24 22 0
-28 -24 -22 0
-29 24 0
-29 28 0
-29 -30 0
29 30 -24 -28 0
30 24 -28 0
-30 24 28 0
-31 24 0
30 -31 -28 0
-30 -31 28 0
30 31 -24 28 0
-30 31 -24 -28 0
-32 24 0
30 -32 28 0
-30 -32 -28 0
30 32 -24 -28 0
-30 32 -24 28 0
-33 12 0
-33 30 0
-33 24 -18 0
-33 -24 18 0
33 -12 24 18 -30 0
33 -12 -24 -18 -30 0
35 12 -24 0
35 -12 24 0
-35 12 24 0
-35 -12 -24 0
34 18 -30 0
34 -18 30 0
-34 18 30 0
-34 -18 -30 0
-36 35 0
-36 30 0
-36 -37 0
36 37 -35 -30 0
37 35 -30 0
-37 35 30 0
-38 35 0
37 -38 -30 0
-37 -38 30 0
37 38 -35 30 0
-37 38 -35 -30 0
-39 35 0
37 -39 30 0
-37 -39 -30 0
37 39 -35 -30 0
-37 39 -35 30 0
-40 12 0
-40 37 0
-40 35 -34 0
-40 -35 34 0
40 -12 35 34 -37 0
40 -12 -35 -34 -37 0
42 12 -35 0
42 -12 35 0
-42 12 35 0
-42 -12 -35 0
41 34 -37 0
41 -34 37 0
-41 34 37 0
-41 -34 -37 0
-43 5 0
-43 6 0
43 -5 -6 0
44 5 -6 0
44 -5 6 0
-44 5 6 0
-44 -5 -6 0
-45 46 0
-45 44 0
-45 -5 0
45 -46 5 -44 0
46 -5 44 0
-46 5 44 0
-47 44 0
46 -47 -5 0
-46 -47 5 0
46 47 5 -44 0
-46 47 -5 -44 0
-48 44 0
46 -48 5 0
-46 -48 -5 0
46 48 -5 -44 0
-46 48 5 -44 0
-49 46 0
-49 44 0
49 -46 -44 0
50 46 -44 0
50 -46 44 0
-50 46 44 0
-50 -46 -44 0
-51 46 0
-51 50 0
-51 -52 0
51 52 -46 -50 0
52 46 -50 0
-52 46 50 0
-53 46 0
52 -53 -50 0
-52 -53 50 0
52 53 -46 50 0
-52 53 -46 -50 0
-54 46 0
52 -54 50 0
-52 -54 -50 0
52 54 -46 -50 0
-52 54 -46 50 0
-55 12 0
-55 52 0
-55 46 -41 0
-55 -46 41 0
55 -12 46 41 -52 0
55 -12 -46 -41 -52 0
57 12 -46 0
57 -12 46 0
-57 12 46 0
-57 -12 -46 0
56 41 -52 0
56 -41 52 0
-56 41 52 0
-56 -41 -52 0
-58 57 0
-58 52 0
-58 -59 0
58 59 -57 -52 0
59 57 -52 0
-59 57 52 0
-60 57 0
59 -60 -52 0
-59 -60 52 0
59 60 -57 52 0
-59 60 -57 -52 0
-61 57 0
59 -61 52 0
-59 -61 -52 0
59 61 -57 -52 0
-59 61 -57 52 0
-62 12 0
-62 59 0
-62 57 -56 0
-62 -57 56 0
62 -12 57 56 -59 0
62 -12 -57 -56 -59 0
64 12 -57 0
64 -12 57 0
-64 12 57 0
-64 -12 -57 0
63 56 -59 0
63 -56 59 0
-63 56 59 0
-63 -56 -59 0
-65 42 0
-65 59 0
-65 64 -37 0
-65 -64 37 0
65 -42 64 37 -59 0
65 -42 -64 -37 -59 0
67 42 -64 0
67 -42 64 0
-67 42 64 0
-67 -42 -64 0
66 37 -59 0
66 -37 59 0
-66 37 59 0
-66 -37 -59 0
-68 67 0
-68 59 0
-68 -69 0
68 69 -67 -59 0
69 67 -59 0
-69 67 59 0
-70 67 0
69 -70 -59 0
-69 -70 59 0
69 70 -67 59 0
-69 70 -67 -59 0
-71 67 0
69 -71 59 0
-69 -71 -59 0
69 71 -67 -59 0
-69 71 -67 59 0
-72 42 0
-72 69 0
-72 67 -66 0
-72 -67 66 0
72 -42 67 66 -69 0
72 -42 -67 -66 -69 0
74 42 -67 0
74 -42 67 0
-74 42 67 0
-74 -42 -67 0
73 66 -69 0
73 -66 69 0
-73 66 69 0
-73 -66 -69 0
-75 7 0
-75 8 0
75 -7 -8 0
76 7 -8 0
76 -7 8 0
-76 7 8 0
-76 -7 -8 0
-77 78 0
-77 76 0
-77 -7 0
77 -78 7 -76 0
78 -7 76 0
-78 7 76 0
-79 76 0
78 -79 -7 0
-78 -79 7 0
78 79 7 -76 0
-78 79 -7 -76 0
-80 76 0
78 -80 7 0
-78 -80 -7 0
78 80 -7 -76 0
-78 80 7 -76 0
-81 78 0
-81 76 0
81 -78 -76 0
82 78 -76 0
82 -78 76 0
-82 78 76 0
-82 -78 -76 0
-83 78 0
-83 82 0
-83 -84 0
83 84 -78 -82 0
84 78 -82 0
-84 78 82 0
-85 78 0
84 -85 -82 0
-84 -85 82 0
84 85 -78 82 0
-84 85 -78 -82 0
-86 78 0
84 -86 82 0
-84 -86 -82 0
84 86 -78 -82 0
-84 86 -78 82 0
-87 12 0
-87 84 0
-87 78 -63 0
-87 -78 63 0
87 -12 78 63 -84 0
87 -12 -78 -63 -84 0
89 12 -78 0
89 -12 78 0
-89 12 78 0
-89 -12 -78 0
88 63 -84 0
88 -63 84 0
-88 63 84 0
-88 -63 -84 0
-90 89 0
-90 84 0
-90 -91 0
90 91 -89 -84 0
91 89 -84 0
-91 89 84 0
-92 89 0
91 -92 -84 0
-91 -92 84 0
91 92 -89 84 0
-91 92 -89 -84 0
-93 89 0
91 -93 84 0
-91 -93 -84 0
91 93 -89 -84 0
-91 93 -89 84 0
-94 12 0
-94 91 0
-94 89 -88 0
-94 -89 88 0
94 -12 89 88 -91 0
94 -12 -89 -88 -91 0
96 12 -89 0
96 -12 89 0
-96 12 89 0
-96 -12 -89 0
95 88 -91 0
95 -88 91 0
-95 88 91 0
-95 -88 -91 0
-97 12 0
-97 95 0
97 -12 -95 0
98 12 -95 0
98 -12 95 0
-98 12 95 0
-98 -12 -95 0
-99 100 0
-99 98 0
-99 -12 0
99 -100 12 -98 0
100 -12 98 0
-100 12 98 0
-101 98 0
100 -101 -12 0
-100 -101 12 0
100 101 12 -98 0
-100 101 -12 -98 0
-102 98 0
100 -102 12 0
-100 -102 -12 0
100 102 -12 -98 0
-100 102 12 -98 0
-103 100 0
-103 98 0
103 -100 -98 0
104 100 -98 0
104 -100 98 0
-104 100 98 0
-104 -100 -98 0
-105 100 0
-105 104 0
-105 -106 0
105 106 -100 -104 0
106 100 -104 0
-106 100 104 0
-107 100 0
106 -107 -104 0
-106 -107 104 0
106 107 -100 104 0
-106 107 -100 -104 0
-108 100 0
106 -108 104 0
-106 -108 -104 0
106 108 -100 -104 0
-106 108 -100 104 0
-109 42 0
-109 91 0
-109 96 -73 0
-109 -96 73 0
109 -42 96 73 -91 0
109 -42 -96 -73 -91 0
111 42 -96 0
111 -42 96 0
-111 42 96 0
-111 -42 -96 0
110 73 -91 0
110 -73 91 0
-110 73 91 0
-110 -73 -91 0
-112 111 0
-112 91 0
-112 -113 0
112 113 -111 -91 0
113 111 -91 0
-113 111 91 0
-114 111 0
113 -114 -91 0
-113 -114 91 0
113 114 -111 91 0
-113 114 -111 -91 0
-115 111 0
113 -115 91 0
-113 -115 -91 0
113 115 -111 -91 0
-113 115 -111 91 0
-116 42 0
-116 113 0
-116 111 -110 0
-116 -111 110 0
116 -42 111 110 -113 0
116 -42 -111 -110 -113 0
118 42 -111 0
118 -42 111 0
-118 42 111 0
-118 -42 -111 0
117 110 -113 0
117 -110 113 0
-117 110 113 0
-117 -110 -113 0
-119 42 0
-119 117 0
119 -42 -117 0
120 42 -117 0
120 -42 117 0
-120 42 117 0
-120 -42 -117 0
-121 122 0
-121 120 0
-121 -42 0
121 -122 42 -120 0
122 -42 120 0
-122 42 120 0
-123 120 0
122 -123 -42 0
-122 -123 42 0
122 123 42 -120 0
-122 123 -42 -120 0
-124 120 0
122 -124 42 0
-122 -124 -42 0
122 124 -42 -120 0
-122 124 42 -120 0
-125 122 0
-125 120 0
125 -122 -120 0
126 122 -120 0
126 -122 120 0
-126 122 120 0
-126 -122 -120 0
-127 122 0
-127 126 0
-127 -128 0
127 128 -122 -126 0
128 122 -126 0
-128 122 126 0
-129 122 0
128 -129 -126 0
-128 -129 126 0
128 129 -122 126 0
-128 129 -122 -126 0
-130 122 0
128 -130 126 0
-128 -130 -126 0
128 130 -122 -126 0
-128 130 -122 126 0
-131 100 0
-131 128 0
-131 122 -106 0
-131 -122 106 0
131 -100 122 106 -128 0
131 -100 -122 -106 -128 0
133 100 -122 0
133 -100 122 0
-133 100 122 0
-133 -100 -122 0
132 106 -128 0
132 -106 128 0
-132 106 128 0
-132 -106 -128 0
-134 133 0
-134 128 0
-134 -135 0
134 135 -133 -128 0
135 133 -128 0
-135 133 128 0
-136 133 0
135 -136 -128 0
-135 -136 128 0
135 136 -133 128 0
-135 136 -133 -128 0
-137 133 0
135 -137 128 0
-135 -137 -128 0
135 137 -133 -128 0
-135 137 -133 128 0
-138 100 0
-138 135 0
-138 133 -132 0
-138 -133 132 0
138 -100 133 132 -135 0
138 -100 -133 -132 -135 0
140 100 -133 0
140 -100 133 0
-140 100 133 0
-140 -100 -133 0
139 132 -135 0
139 -132 135 0
-139 132 135 0
-139 -132 -135 0
-141 74 0
-141 113 0
-141 118 -69 0
-141 -118 69 0
141 -74 118 69 -113 0
141 -74 -118 -69 -113 0
143 74 -118 0
143 -74 118 0
-143 74 118 0
-143 -74 -118 0
142 69 -113 0
142 -69 113 0
-142 69 113 0
-142 -69 -113 0
-144 143 0
-144 113 0
-144 -145 0
144 145 -143 -113 0
145 143 -113 0
-145 143 113 0
-146 143 0
145 -146 -113 0
-145 -146 113 0
145 146 -143 113 0
-145 146 -143 -113 0
-147 143 0
145 -147 113 0
-145 -147 -113 0
145 147 -143 -113 0
-145 147 -143 113 0
-148 74 0
-148 145 0
-148 143 -142 0
-148 -143 142 0
148 -74 143 142 -145 0
148 -74 -143 -142 -145 0
150 74 -143 0
150 -74 143 0
-150 74 143 0
-150 -74 -143 0
149 142 -145 0
149 -142 145 0
-149 142 145 0
-149 -142 -145 0
-151 74 0
-151 149 0
151 -74 -149 0
152 74 -149 0
152 -74 149 0
-152 74 149 0
-152 -74 -149 0
-153 154 0
-153 152 0
-153 -74 0
153 -154 74 -152 0
154 -74 152 0
-154 74 152 0
-155 152 0
154 -155 -74 0
-154 -155 74 0
154 155 74 -152 0
-154 155 -74 -152 0
-156 152 0
154 -156 74 0
-154 -156 -74 0
154 156 -74 -152 0
-154 156 74 -152 0
-157 154 0
-157 152 0
157 -154 -152 0
158 154 -152 0
158 -154 152 0
-158 154 152 0
-158 -154 -152 0
-159 154 0
-159 158 0
-159 -160 0
159 160 -154 -158 0
160 154 -158 0
-160 154 158 0
-161 154 0
160 -161 -158 0
-160 -161 158 0
160 161 -154 158 0
-160 161 -154 -158 0
-162 154 0
160 -162 158 0
-160 -162 -158 0
160 162 -154 -158 0
-160 162 -154 158 0
-163 100 0
-163 160 0
-163 154 -139 0
-163 -154 139 0
163 -100 154 139 -160 0
163 -100 -154 -139 -160 0
165 100 -154 0
165 -100 154 0
-165 100 154 0
-165 -100 -154 0
164 139 -160 0
164 -139 160 0
-164 139 160 0
-164 -139 -160 0
-166 165 0
-166 160 0
-166 -167 0
166 167 -165 -160 0
167 165 -160 0
-167 165 160 0
-168 165 0
167 -168 -160 0
-167 -168 160 0
167 168 -165 160 0
-167 168 -165 -160 0
-169 165 0
167 -169 160 0
-167 -169 -160 0
167 169 -165 -160 0
-167 169 -165 160 0
-170 100 0
-170 167 0
-170 165 -164 0
-170 -165 164 0
170 -100 165 164 -167 0
170 -100 -165 -164 -167 0
172 100 -165 0
172 -100 165 0
-172 100 165 0
-172 -100 -165 0
171 164 -167 0
171 -164 167 0
-171 164 167 0
-171 -164 -167 0
-173 140 0
-173 167 0
-173 172 -135 0
-173 -172 135 0
173 -140 172 135 -167 0
173 -140 -172 -135 -167 0
175 140 -172 0
175 -140 172 0
-175 140 172 0
-175 -140 -172 0
174 135 -167 0
174 -135 167 0
-174 135 167 0
-174 -135 -167 0
-176 175 0
-176 167 0
-176 -177 0
176 177 -175 -167 0
177 175 -167 0
-177 175 167 0
-178 175 0
177 -178 -167 0
-177 -178 167 0
177 178 -175 167 0
-177 178 -175 -167 0
-179 175 0
177 -179 167 0
-177 -179 -167 0
177 179 -175 -167 0
-177 179 -175 167 0
-180 140 0
-180 177 0
-180 175 -174 0
-180 -175 174 0
180 -140 175 174 -177 0
180 -140 -175 -174 -177 0
182 140 -175 0
182 -140 175 0
-182 140 175 0
-182 -140 -175 0
181 174 -177 0
181 -174 177 0
-181 174 177 0
-181 -174 -177 0
-183 150 0
-183 145 0
183 -150 -145 0
184 150 -145 0
184 -150 145 0
-184 150 145 0
-184 -150 -145 0
-185 186 0
-185 184 0
-185 -150 0
185 -186 150 -184 0
186 -150 184 0
-186 150 184 0
-187 184 0
186 -187 -150 0
-186 -187 150 0
186 187 150 -184 0
-186 187 -150 -184 0
-188 184 0
186 -188 150 0
-186 -188 -150 0
186 188 -150 -184 0
-186 188 150 -184 0
-189 186 0
-189 184 0
189 -186 -184 0
190 186 -184 0
190 -186 184 0
-190 186 184 0
-190 -186 -184 0
-191 186 0
-191 190 0
-191 -192 0
191 192 -186 -190 0
192 186 -190 0
-192 186 190 0
-193 186 0
192 -193 -190 0
-192 -193 190 0
192 193 -186 190 0
-192 193 -186 -190 0
-194 186 0
192 -194 190 0
-192 -194 -190 0
192 194 -186 -190 0
-192 194 -186 190 0
-195 100 0
-195 192 0
-195 186 -171 0
-195 -186 171 0
195 -100 186 171 -192 0
195 -100 -186 -171 -192 0
197 100 -186 0
197 -100 186 0
-197 100 186 0
-197 -100 -186 0
196 171 -192 0
196 -171 192 0
-196 171 192 0
-196 -171 -192 0
-198 197 0
-198 192 0
-198 -199 0
198 199 -197 -192 0
199 197 -192 0
-199 197 192 0
-200 197 0
199 -200 -192 0
-199 -200 192 0
199 200 -197 192 0
-199 200 -197 -192 0
-201 197 0
199 -201 192 0
-199 -201 -192 0
199 201 -197 -192 0
-199 201 -197 192 0
-202 100 0
-202 199 0
-202 197 -196 0
-202 -197 196 0
202 -100 197 196 -199 0
202 -100 -197 -196 -199 0
204 100 -197 0
204 -100 197 0
-204 100 197 0
-204 -100 -197 0
203 196 -199 0
203 -196 199 0
-203 196 199 0
-203 -196 -199 0
-205 100 0
-205 203 0
-205 -206 0
205 206 -100 -203 0
206 100 -203 0
-206 100 203 0
-207 100 0
206 -207 -203 0
-206 -207 203 0
206 207 -100 203 0
-206 207 -100 -203 0
-208 100 0
206 -208 203 0
-206 -208 -203 0
206 208 -100 -203 0
-206 208 -100 203 0
-209 210 0
-209 206 0
-209 -100 0
209 -210 100 -206 0
210 -100 206 0
-210 100 206 0
-211 206 0
210 -211 -100 0
-210 -211 100 0
210 211 100 -206 0
-210 211 -100 -206 0
-212 206 0
210 -212 100 0
-210 -212 -100 0
210 212 -100 -206 0
-210 212 100 -206 0
-213 210 0
-213 206 0
-213 -214 0
213 214 -210 -206 0
214 210 -206 0
-214 210 206 0
-215 210 0
214 -215 -206 0
-214 -215 206 0
214 215 -210 206 0
-214 215 -210 -206 0
-216 210 0
214 -216 206 0
-214 -216 -206 0
214 216 -210 -206 0
-214 216 -210 206 0
-217 218 0
-217 214 0
-217 -210 0
217 -218 210 -214 0
218 -210 214 0
-218 210 214 0
-219 214 0
218 -219 -210 0
-218 -219 210 0
218 219 210 -214 0
-218 219 -210 -214 0
-220 214 0
218 -220 210 0
-218 -220 -210 0
218 220 -210 -214 0
-218 220 210 -214 0
-221 218 0
-221 214 0
-221 -222 0
221 222 -218 -214 0
222 218 -214 0
-222 218 214 0
-223 218 0
222 -223 -214 0
-222 -223 214 0
222 223 -218 214 0
-222 223 -218 -214 0
-224 218 0
222 -224 214 0
-222 -224 -214 0
222 224 -218 -214 0
-222 224 -218 214 0
-225 140 0
-225 199 0
-225 204 -181 0
-225 -204 181 0
225 -140 204 181 -199 0
225 -140 -204 -181 -199 0
227 140 -204 0
227 -140 204 0
-227 140 204 0
-227 -140 -204 0
226 181 -199 0
226 -181 199 0
-226 181 199 0
-226 -181 -199 0
-228 227 0
-228 199 0
-228 -229 0
228 229 -227 -199 0
229 227 -199 0
-229 227 199 0
-230 227 0
229 -230 -199 0
-229 -230 199 0
229 230 -227 199 0
-229 230 -227 -199 0
-231 227 0
229 -231 199 0
-229 -231 -199 0
229 231 -227 -199 0
-229 231 -227 199 0
-232 140 0
-232 229 0
-232 227 -226 0
-232 -227 226 0
232 -140 227 226 -229 0
232 -140 -227 -226 -229 0
234 140 -227 0
234 -140 227 0
-234 140 227 0
-234 -140 -227 0
233 226 -229 0
233 -226 229 0
-233 226 229 0
-233 -226 -229 0
-235 140 0
-235 233 0
-235 -236 0
235 236 -140 -233 0
236 140 -233 0
-236 140 233 0
-237 140 0
236 -237 -233 0
-236 -237 233 0
236 237 -140 233 0
-236 237 -140 -233 0
-238 140 0
236 -238 233 0
-236 -238 -233 0
236 238 -140 -233 0
-236 238 -140 233 0
-239 240 0
-239 236 0
-239 -140 0
239 -240 140 -236 0
240 -140 236 0
-240 140 236 0
-241 236 0
240 -241 -140 0
-240 -241 140 0
240 241 140 -236 0
-240 241 -140 -236 0
-242 236 0
240 -242 140 0
-240 -242 -140 0
240 242 -140 -236 0
-240 242 140 -236 0
-243 240 0
-243 236 0
-243 -244 0
243 244 -240 -236 0
244 240 -236 0
-244 240 236 0
-245 240 0
244 -245 -236 0
-244 -245 236 0
244 245 -240 236 0
-244 245 -240 -236 0
-246 240 0
244 -246 236 0
-244 -246 -236 0
244 246 -240 -236 0
-244 246 -240 236 0
-247 248 0
-247 244 0
-247 -240 0
247 -248 240 -244 0
248 -240 244 0
-248 240 244 0
-249 244 0
248 -249 -240 0
-248 -249 240 0
248 249 240 -244 0
-248 249 -240 -244 0
-250 244 0
248 -250 240 0
-248 -250 -240 0
248 250 -240 -244 0
-248 250 240 -244 0
-251 248 0
-251 244 0
-251 -252 0
251 252 -248 -244 0
252 248 -244 0
-252 248 244 0
-253 248 0
252 -253 -244 0
-252 -253 244 0
252 253 -248 244 0
-252 253 -248 -244 0
-254 248 0
252 -254 244 0
-252 -254 -244 0
252 254 -248 -244 0
-252 254 -248 244 0
-255 182 0
-255 229 0
-255 234 -177 0
-255 -234 177 0
255 -182 234 177 -229 0
255 -182 -234 -177 -229 0
257 182 -234 0
257 -182 234 0
-257 182 234 0
-257 -182 -234 0
256 177 -229 0
256 -177 229 0
-256 177 229 0
-256 -177 -229 0
-258 257 0
-258 229 0
-258 -259 0
258 259 -257 -229 0
259 257 -229 0
-259 257 229 0
-260 257 0
259 -260 -229 0
-259 -260 229 0
259 260 -257 229 0
-259 260 -257 -229 0
-261 257 0
259 -261 229 0
-259 -261 -229 0
259 261 -257 -229 0
-259 261 -257 229 0
-262 182 0
-262 259 0
-262 257 -256 0
-262 -257 256 0
262 -182 257 256 -259 0
262 -182 -257 -256 -259 0
264 182 -257 0
264 -182 257 0
-264 182 257 0
-264 -182 -257 0
263 256 -259 0
263 -256 259 0
-263 256 259 0
-263 -256 -259 0
-265 182 0
-265 263 0
-265 -266 0
265 266 -182 -263 0
266 182 -263 0
-266 182 263 0
-267 182 0
266 -267 -263 0
-266 -267 263 0
266 267 -182 263 0
-266 267 -182 -263 0
-268 182 0
266 -268 263 0
-266 -268 -263 0
266 268 -182 -263 0
-266 268 -182 263 0
-269 270 0
-269 266 0
-269 -182 0
269 -270 182 -266 0
270 -182 266 0
-270 182 266 0
-271 266 0
270 -271 -182 0
-270 -271 182 0
270 271 182 -266 0
-270 271 -182 -266 0
-272 266 0
270 -272 182 0
-270 -272 -182 0
270 272 -182 -266 0
-270 272 182 -266 0
-273 270 0
-273 266 0
-273 -274 0
273 274 -270 -266 0
274 270 -266 0
-274 270 266 0
-275 270 0
274 -275 -266 0
-274 -275 266 0
274 275 -270 266 0
-274 275 -270 -266 0
-276 270 0
274 -276 266 0
-274 -276 -266 0
274 276 -270 -266 0
-274 276 -270 266 0
-277 278 0
-277 274 0
-277 -270 0
277 -278 270 -274 0
278 -270 274 0
-278 270 274 0
-279 274 0
278 -279 -270 0
-278 -279 270 0
278 279 270 -274 0
-278 279 -270 -274 0
-280 274 0
278 -280 270 0
-278 -280 -270 0
278 280 -270 -274 0
-278 280 270 -274 0
-281 278 0
-281 274 0
-281 -282 0
281 282 -278 -274 0
282 278 -274 0
-282 278 274 0
-283 278 0
282 -283 -274 0
-282 -283 274 0
282 283 -278 274 0
-282 283 -278 -274 0
-284 278 0
282 -284 274 0
-282 -284 -274 0
282 284 -278 -274 0
-282 284 -278 274 0
-285 264 0
-285 259 0
-285 -286 0
285 286 -264 -259 0
286 264 -259 0
-286 264 259 0
-287 264 0
286 -287 -259 0
-286 -287 259 0
286 287 -264 259 0
-286 287 -264 -259 0
-288 264 0
286 -288 259 0
-286 -288 -259 0
286 288 -264 -259 0
-286 288 -264 259 0
-289 290 0
-289 286 0
-289 -264 0
289 -290 264 -286 0
290 -264 286 0
-290 264 286 0
-291 286 0
290 -291 -264 0
-290 -291 264 0
290 291 264 -286 0
-290 291 -264 -286 0
-292 286 0
290 -292 264 0
-290 -292 -264 0
290 292 -264 -286 0
-290 292 264 -286 0
-293 290 0
-293 286 0
-293 -294 0
293 294 -290 -286 0
294 290 -286 0
-294 290 286 0
-295 290 0
294 -295 -286 0
-294 -295 286 0
294 295 -290 286 0
-294 295 -290 -286 0
-296 290 0
294 -296 286 0
-294 -296 -286 0
294 296 -290 -286 0
-294 296 -290 286 0
-297 298 0
-297 294 0
-297 -290 0
297 -298 290 -294 0
298 -290 294 0
-298 290 294 0
-299 294 0
298 -299 -290 0
-298 -299 290 0
298 299 290 -294 0
-298 299 -290 -294 0
-300 294 0
298 -300 290 0
-298 -300 -290 0
298 300 -290 -294 0
-298 300 290 -294 0
-301 298 0
-301 294 0
-301 -302 0
301 302 -298 -294 0
302 298 -294 0
-302 298 294 0
-303 298 0
302 -303 -294 0
-302 -303 294 0
302 303 -298 294 0
-302 303 -298 -294 0
-304 298 0
302 -304 294 0
-302 -304 -294 0
302 304 -298 -294 0
-302 304 -298 294 0
-305 278 0
-305 302 0
-305 298 -282 0
-305 -298 282 0
305 -278 298 282 -302 0
305 -278 -298 -282 -302 0
307 278 -298 0
307 -278 298 0
-307 278 298 0
-307 -278 -298 0
306 282 -302 0
306 -282 302 0
-306 282 302 0
-306 -282 -302 0
-308 248 0
-308 306 0
-308 278 -252 0
-308 -278 252 0
308 -248 278 252 -306 0
308 -248 -278 -252 -306 0
310 248 -278 0
310 -248 278 0
-310 248 278 0
-310 -248 -278 0
309 252 -306 0
309 -252 306 0
-309 252 306 0
-309 -252 -306 0
-311 218 0
-311 309 0
-311 248 -222 0
-311 -248 222 0
311 -218 248 222 -309 0
311 -218 -248 -222 -309 0
313 218 -248 0
313 -218 248 0
-313 218 248 0
-313 -218 -248 0
312 222 -309 0
312 -222 309 0
-312 222 309 0
-312 -222 -309 0
-314 218 0
-314 312 0
-314 -315 0
314 315 -218 -312 0
315 218 -312 0
-315 218 312 0
-316 218 0
315 -316 -312 0
-315 -316 312 0
315 316 -218 312 0
-315 316 -218 -312 0
-317 218 0
315 -317 312 0
-315 -317 -312 0
315 317 -218 -312 0
-315 317 -218 312 0
-318 319 0
-318 315 0
-318 -218 0
318 -319 218 -315 0
319 -218 315 0
-319 218 315 0
-320 315 0
319 -320 -218 0
-319 -320 218 0
319 320 218 -315 0
-319 320 -218 -315 0
-321 315 0
319 -321 218 0
-319 -321 -218 0
319 321 -218 -315 0
-319 321 218 -315 0
-322 319 0
-322 315 0
-322 -323 0
322 323 -319 -315 0
323 319 -315 0
-323 319 315 0
-324 319 0
323 -324 -315 0
-323 -324 315 0
323 324 -319 315 0
-323 324 -319 -315 0
-325 319 0
323 -325 315 0
-323 -325 -315 0
323 325 -319 -315 0
-323 325 -319 315 0
-326 327 0
-326 323 0
-326 -319 0
326 -327 319 -323 0
327 -319 323 0
-327 319 323 0
-328 323 0
327 -328 -319 0
-327 -328 319 0
327 328 319 -323 0
-327 328 -319 -323 0
-329 323 0
327 -329 319 0
-327 -329 -319 0
327 329 -319 -323 0
-327 329 319 -323 0
-330 327 0
-330 323 0
-330 -331 0
330 331 -327 -323 0
331 327 -323 0
-331 327 323 0
-332 327 0
331 -332 -323 0
-331 -332 323 0
331 332 -327 323 0
-331 332 -327 -323 0
-333 327 0
331 -333 323 0
-331 -333 -323 0
331 333 -327 -323 0
-331 333 -327 323 0
-334 313 0
-334 309 0
-334 -335 0
334 335 -313 -309 0
335 313 -309 0
-335 313 309 0
-336 313 0
335 -336 -309 0
-335 -336 309 0
335 336 -313 309 0
-335 336 -313 -309 0
-337 313 0
335 -337 309 0
-335 -337 -309 0
335 337 -313 -309 0
-335 337 -313 309 0
-338 339 0
-338 335 0
-338 -313 0
338 -339 313 -335 0
339 -313 335 0
-339 313 335 0
-340 335 0
339 -340 -313 0
-339 -340 313 0
339 340 313 -335 0
-339 340 -313 -335 0
-341 335 0
339 -341 313 0
-339 -341 -313 0
339 341 -313 -335 0
-339 341 313 -335 0
-342 339 0
-342 335 0
-342 -343 0
342 343 -339 -335 0
343 339 -335 0
-343 339 335 0
-344 339 0
343 -344 -335 0
-343 -344 335 0
343 344 -339 335 0
-343 344 -339 -335 0
-345 339 0
343 -345 335 0
-343 -345 -335 0
343 345 -339 -335 0
-343 345 -339 335 0
-346 347 0
-346 343 0
-346 -339 0
346 -347 339 -343 0
347 -339 343 0
-347 339 343 0
-348 343 0
347 -348 -339 0
-347 -348 339 0
347 348 339 -343 0
-347 348 -339 -343 0
-349 343 0
347 -349 339 0
-347 -349 -339 0
347 349 -339 -343 0
-347 349 339 -343 0
-350 347 0
-350 343 0
-350 -351 0
350 351 -347 -343 0
351 347 -343 0
-351 347 343 0
-352 347 0
351 -352 -343 0
-351 -352 343 0
351 352 -347 343 0
-351 352 -347 -343 0
-353 347 0
351 -353 343 0
-351 -353 -343 0
351 353 -347 -343 0
-351 353 -347 343 0
-354 310 0
-354 306 0
-354 -355 0
354 355 -310 -306 0
355 310 -306 0
-355 310 306 0
-356 310 0
355 -356 -306 0
-355 -356 306 0
355 356 -310 306 0
-355 356 -310 -306 0
-357 310 0
355 -357 306 0
-355 -357 -306 0
355 357 -310 -306 0
-355 357 -310 306 0
-358 359 0
-358 355 0
-358 -310 0
358 -359 310 -355 0
359 -310 355 0
-359 310 355 0
-360 355 0
359 -360 -310 0
-359 -360 310 0
359 360 310 -355 0
-359 360 -310 -355 0
-361 355 0
359 -361 310 0
-359 -361 -310 0
359 361 -310 -355 0
-359 361 310 -355 0
-362 359 0
-362 355 0
-362 -363 0
362 363 -359 -355 0
363 359 -355 0
-363 359 355 0
-364 359 0
363 -364 -355 0
-363 -364 355 0
363 364 -359 355 0
-363 364 -359 -355 0
-365 359 0
363 -365 355 0
-363 -365 -355 0
363 365 -359 -355 0
-363 365 -359 355 0
-366 367 0
-366 363 0
-366 -359 0
366 -367 359 -363 0
367 -359 363 0
-367 359 363 0
-368 363 0
367 -368 -359 0
-367 -368 359 0
367 368 359 -363 0
-367 368 -359 -363 0
-369 363 0
367 -369 359 0
-367 -369 -359 0
367 369 -359 -363 0
-367 369 359 -363 0
-370 367 0
-370 363 0
-370 -371 0
370 371 -367 -363 0
371 367 -363 0
-371 367 363 0
-372 367 0
371 -372 -363 0
-371 -372 363 0
371 372 -367 363 0
-371 372 -367 -363 0
-373 367 0
371 -373 363 0
-371 -373 -363 0
371 373 -367 -363 0
-371 373 -367 363 0
-374 307 0
-374 302 0
-374 -375 0
374 375 -307 -302 0
375 307 -302 0
-375 307 302 0
-376 307 0
375 -376 -302 0
-375 -376 302 0
375 376 -307 302 0
-375 376 -307 -302 0
-377 307 0
375 -377 302 0
-375 -377 -302 0
375 377 -307 -302 0
-375 377 -307 302 0
-378 379 0
-378 375 0
-378 -307 0
378 -379 307 -375 0
379 -307 375 0
-379 307 375 0
-380 375 0
379 -380 -307 0
-379 -380 307 0
379 380 307 -375 0
-379 380 -307 -375 0
-381 375 0
379 -381 307 0
-379 -381 -307 0
379 381 -307 -375 0
-379 381 307 -375 0
-382 379 0
-382 375 0
-382 -383 0
382 383 -379 -375 0
383 379 -375 0
-383 379 375 0
-384 379 0
383 -384 -375 0
-383 -384 375 0
383 384 -379 375 0
-383 384 -379 -375 0
-385 379 0
383 -385 375 0
-383 -385 -375 0
383 385 -379 -375 0
-383 385 -379 375 0
-386 387 0
-386 383 0
-386 -379 0
386 -387 379 -383 0
387 -379 383 0
-387 379 383 0
-388 383 0
387 -388 -379 0
-387 -388 379 0
387 388 379 -383 0
-387 388 -379 -383 0
-389 383 0
387 -389 379 0
-387 -389 -379 0
387 389 -379 -383 0
-387 389 379 -383 0
-390 387 0
-390 383 0
-390 -391 0
390 391 -387 -383 0
391 387 -383 0
-391 387 383 0
-392 387 0
391 -392 -383 0
-391 -392 383 0
391 392 -387 383 0
-391 392 -387 -383 0
-393 387 0
391 -393 383 0
-391 -393 -383 0
391 393 -387 -383 0
-391 393 -387 383 0
-327 0
-347 0
-351 0
-367 0
-371 0
-387 0
-391 0
